66
1 0 7
2 0 2
2 1 17
3 0 32
3 1 43
3 2 10
4 0 2
4 1 12
4 2 39
4 3 38
5 0 6
5 1 32
5 2 29
5 3 24
5 4 38
6 0 42
6 1 5
6 2 33
6 3 17
6 4 40
6 5 30
7 0 14
7 1 40
7 2 43
7 3 6
7 4 7
7 5 33
7 6 36
8 0 5
8 1 43
8 2 41
8 3 18
8 4 31
8 5 26
8 6 2
8 7 16
9 0 3
9 1 26
9 2 25
9 3 40
9 4 39
9 5 16
9 6 30
9 7 9
9 8 42
10 0 33
10 1 15
10 2 42
10 3 35
10 4 26
10 5 23
10 6 45
10 7 11
10 8 13
10 9 10
11 0 39
11 1 37
11 2 45
11 3 6
11 4 15
11 5 43
11 6 41
11 7 42
11 8 10
11 9 39
11 10 3
12 0 24
12 1 18
12 2 9
12 3 17
12 4 40
12 5 17
12 6 4
12 7 45
12 8 3
12 9 7
12 10 35
12 11 44
13 0 31
13 1 1
13 2 35
13 3 5
13 4 2
13 5 29
13 6 43
13 7 15
13 8 18
13 9 29
13 10 27
13 11 41
13 12 16
14 0 19
14 1 37
14 2 22
14 3 13
14 4 39
14 5 44
14 6 29
14 7 44
14 8 15
14 9 9
14 10 20
14 11 21
14 12 44
14 13 43
15 0 22
15 1 15
15 2 18
15 3 9
15 4 39
15 5 40
15 6 3
15 7 44
15 8 17
15 9 21
15 10 42
15 11 43
15 12 11
15 13 10
15 14 22
16 0 21
16 1 15
16 2 18
16 3 39
16 4 13
16 5 17
16 6 8
16 7 42
16 8 1
16 9 17
16 10 1
16 11 13
16 12 25
16 13 8
16 14 32
16 15 37
17 0 23
17 1 3
17 2 7
17 3 8
17 4 12
17 5 30
17 6 27
17 7 11
17 8 43
17 9 26
17 10 12
17 11 17
17 12 43
17 13 27
17 14 42
17 15 14
17 16 2
18 0 20
18 1 19
18 2 33
18 3 43
18 4 6
18 5 43
18 6 44
18 7 26
18 8 32
18 9 31
18 10 19
18 11 8
18 12 44
18 13 41
18 14 16
18 15 21
18 16 43
18 17 39
19 0 29
19 1 45
19 2 38
19 3 5
19 4 16
19 5 39
19 6 21
19 7 34
19 8 8
19 9 5
19 10 12
19 11 5
19 12 45
19 13 27
19 14 25
19 15 28
19 16 28
19 17 12
19 18 28
20 0 3
20 1 44
20 2 37
20 3 38
20 4 13
20 5 17
20 6 19
20 7 31
20 8 7
20 9 36
20 10 2
20 11 31
20 12 15
20 13 9
20 14 17
20 15 15
20 16 11
20 17 16
20 18 14
20 19 35
21 0 1
21 1 30
21 2 41
21 3 31
21 4 27
21 5 42
21 6 34
21 7 25
21 8 12
21 9 5
21 10 27
21 11 22
21 12 42
21 13 30
21 14 15
21 15 4
21 16 18
21 17 25
21 18 41
21 19 2
21 20 11
22 0 23
22 1 38
22 2 28
22 3 40
22 4 45
22 5 2
22 6 3
22 7 10
22 8 30
22 9 15
22 10 26
22 11 36
22 12 34
22 13 5
22 14 18
22 15 18
22 16 14
22 17 27
22 18 16
22 19 21
22 20 11
22 21 44
23 0 25
23 1 38
23 2 45
23 3 2
23 4 18
23 5 32
23 6 31
23 7 22
23 8 43
23 9 28
23 10 19
23 11 38
23 12 11
23 13 8
23 14 12
23 15 19
23 16 14
23 17 28
23 18 28
23 19 12
23 20 33
23 21 20
23 22 14
24 0 28
24 1 17
24 2 25
24 3 27
24 4 20
24 5 6
24 6 7
24 7 37
24 8 4
24 9 5
24 10 41
24 11 25
24 12 8
24 13 30
24 14 41
24 15 6
24 16 6
24 17 2
24 18 8
24 19 18
24 20 9
24 21 29
24 22 5
24 23 35
25 0 21
25 1 2
25 2 14
25 3 39
25 4 29
25 5 13
25 6 33
25 7 24
25 8 20
25 9 20
25 10 4
25 11 42
25 12 36
25 13 44
25 14 43
25 15 40
25 16 9
25 17 21
25 18 40
25 19 40
25 20 2
25 21 7
25 22 28
25 23 14
25 24 37
26 0 43
26 1 13
26 2 29
26 3 10
26 4 40
26 5 36
26 6 7
26 7 31
26 8 20
26 9 11
26 10 33
26 11 4
26 12 39
26 13 41
26 14 19
26 15 25
26 16 31
26 17 42
26 18 22
26 19 11
26 20 2
26 21 6
26 22 3
26 23 44
26 24 12
26 25 8
27 0 45
27 1 4
27 2 43
27 3 17
27 4 5
27 5 23
27 6 36
27 7 28
27 8 10
27 9 13
27 10 20
27 11 16
27 12 18
27 13 42
27 14 12
27 15 19
27 16 34
27 17 13
27 18 3
27 19 19
27 20 7
27 21 36
27 22 38
27 23 33
27 24 44
27 25 18
27 26 8
28 0 19
28 1 2
28 2 23
28 3 41
28 4 30
28 5 33
28 6 31
28 7 15
28 8 16
28 9 15
28 10 40
28 11 25
28 12 5
28 13 12
28 14 30
28 15 24
28 16 41
28 17 11
28 18 20
28 19 9
28 20 39
28 21 40
28 22 37
28 23 42
28 24 44
28 25 19
28 26 35
28 27 34
29 0 40
29 1 41
29 2 32
29 3 7
29 4 3
29 5 42
29 6 4
29 7 2
29 8 32
29 9 5
29 10 4
29 11 6
29 12 20
29 13 1
29 14 23
29 15 24
29 16 36
29 17 25
29 18 24
29 19 29
29 20 20
29 21 23
29 22 27
29 23 15
29 24 20
29 25 6
29 26 5
29 27 12
29 28 17
30 0 45
30 1 39
30 2 33
30 3 17
30 4 7
30 5 24
30 6 10
30 7 25
30 8 30
30 9 9
30 10 37
30 11 41
30 12 38
30 13 18
30 14 12
30 15 5
30 16 41
30 17 21
30 18 30
30 19 36
30 20 40
30 21 37
30 22 37
30 23 36
30 24 27
30 25 42
30 26 26
30 27 35
30 28 34
30 29 14
31 0 6
31 1 19
31 2 44
31 3 43
31 4 44
31 5 30
31 6 11
31 7 38
31 8 16
31 9 31
31 10 19
31 11 20
31 12 19
31 13 6
31 14 30
31 15 13
31 16 45
31 17 12
31 18 39
31 19 23
31 20 44
31 21 8
31 22 17
31 23 5
31 24 7
31 25 18
31 26 38
31 27 3
31 28 43
31 29 8
31 30 35
32 0 10
32 1 6
32 2 40
32 3 12
32 4 24
32 5 44
32 6 28
32 7 35
32 8 14
32 9 37
32 10 16
32 11 2
32 12 15
32 13 18
32 14 17
32 15 36
32 16 7
32 17 20
32 18 8
32 19 11
32 20 33
32 21 2
32 22 39
32 23 1
32 24 25
32 25 7
32 26 15
32 27 42
32 28 21
32 29 7
32 30 26
32 31 20
33 0 9
33 1 44
33 2 12
33 3 2
33 4 18
33 5 42
33 6 19
33 7 42
33 8 3
33 9 22
33 10 25
33 11 20
33 12 14
33 13 6
33 14 30
33 15 11
33 16 36
33 17 43
33 18 17
33 19 11
33 20 33
33 21 12
33 22 24
33 23 43
33 24 36
33 25 7
33 26 9
33 27 15
33 28 22
33 29 37
33 30 15
33 31 20
33 32 3
34 0 34
34 1 40
34 2 45
34 3 33
34 4 5
34 5 24
34 6 34
34 7 32
34 8 12
34 9 8
34 10 44
34 11 29
34 12 8
34 13 1
34 14 15
34 15 22
34 16 22
34 17 30
34 18 22
34 19 10
34 20 20
34 21 25
34 22 45
34 23 39
34 24 33
34 25 45
34 26 29
34 27 10
34 28 3
34 29 12
34 30 25
34 31 43
34 32 19
34 33 31
35 0 40
35 1 44
35 2 15
35 3 20
35 4 27
35 5 8
35 6 22
35 7 2
35 8 39
35 9 11
35 10 34
35 11 11
35 12 2
35 13 36
35 14 2
35 15 38
35 16 11
35 17 11
35 18 45
35 19 39
35 20 42
35 21 4
35 22 3
35 23 1
35 24 3
35 25 20
35 26 35
35 27 22
35 28 38
35 29 16
35 30 6
35 31 4
35 32 41
35 33 27
35 34 15
36 0 33
36 1 26
36 2 30
36 3 14
36 4 31
36 5 27
36 6 30
36 7 1
36 8 43
36 9 20
36 10 23
36 11 5
36 12 34
36 13 43
36 14 38
36 15 24
36 16 40
36 17 45
36 18 43
36 19 20
36 20 37
36 21 35
36 22 21
36 23 2
36 24 14
36 25 9
36 26 38
36 27 34
36 28 3
36 29 3
36 30 10
36 31 6
36 32 42
36 33 40
36 34 22
36 35 9
37 0 17
37 1 18
37 2 44
37 3 29
37 4 19
37 5 4
37 6 25
37 7 45
37 8 6
37 9 24
37 10 2
37 11 8
37 12 20
37 13 13
37 14 5
37 15 25
37 16 2
37 17 14
37 18 3
37 19 30
37 20 7
37 21 30
37 22 5
37 23 6
37 24 39
37 25 26
37 26 14
37 27 26
37 28 17
37 29 15
37 30 2
37 31 11
37 32 41
37 33 22
37 34 30
37 35 4
37 36 20
38 0 17
38 1 38
38 2 10
38 3 23
38 4 40
38 5 37
38 6 43
38 7 31
38 8 4
38 9 9
38 10 43
38 11 19
38 12 2
38 13 18
38 14 17
38 15 22
38 16 41
38 17 40
38 18 29
38 19 2
38 20 17
38 21 12
38 22 23
38 23 9
38 24 27
38 25 31
38 26 25
38 27 28
38 28 31
38 29 24
38 30 2
38 31 16
38 32 2
38 33 14
38 34 3
38 35 7
38 36 12
38 37 41
39 0 12
39 1 40
39 2 16
39 3 33
39 4 24
39 5 26
39 6 21
39 7 42
39 8 19
39 9 31
39 10 26
39 11 32
39 12 23
39 13 14
39 14 17
39 15 9
39 16 20
39 17 6
39 18 34
39 19 29
39 20 36
39 21 8
39 22 29
39 23 27
39 24 38
39 25 38
39 26 25
39 27 31
39 28 36
39 29 44
39 30 29
39 31 36
39 32 11
39 33 22
39 34 5
39 35 6
39 36 34
39 37 1
39 38 35
40 0 11
40 1 40
40 2 1
40 3 33
40 4 43
40 5 9
40 6 19
40 7 43
40 8 39
40 9 35
40 10 24
40 11 28
40 12 41
40 13 20
40 14 28
40 15 14
40 16 5
40 17 42
40 18 40
40 19 17
40 20 20
40 21 10
40 22 17
40 23 7
40 24 24
40 25 9
40 26 44
40 27 37
40 28 21
40 29 9
40 30 44
40 31 5
40 32 5
40 33 3
40 34 18
40 35 10
40 36 33
40 37 40
40 38 9
40 39 17
41 0 29
41 1 12
41 2 8
41 3 6
41 4 7
41 5 13
41 6 8
41 7 19
41 8 11
41 9 6
41 10 31
41 11 28
41 12 34
41 13 44
41 14 9
41 15 25
41 16 34
41 17 43
41 18 31
41 19 36
41 20 22
41 21 43
41 22 18
41 23 2
41 24 9
41 25 45
41 26 22
41 27 7
41 28 33
41 29 37
41 30 11
41 31 9
41 32 17
41 33 20
41 34 11
41 35 40
41 36 30
41 37 35
41 38 7
41 39 34
41 40 10
42 0 8
42 1 24
42 2 10
42 3 15
42 4 2
42 5 28
42 6 22
42 7 22
42 8 14
42 9 38
42 10 31
42 11 21
42 12 45
42 13 33
42 14 44
42 15 8
42 16 31
42 17 20
42 18 9
42 19 7
42 20 34
42 21 2
42 22 25
42 23 11
42 24 45
42 25 9
42 26 17
42 27 10
42 28 21
42 29 41
42 30 30
42 31 2
42 32 2
42 33 31
42 34 22
42 35 17
42 36 1
42 37 5
42 38 1
42 39 3
42 40 22
42 41 16
43 0 34
43 1 7
43 2 25
43 3 42
43 4 24
43 5 20
43 6 31
43 7 41
43 8 6
43 9 30
43 10 16
43 11 34
43 12 35
43 13 35
43 14 10
43 15 30
43 16 22
43 17 44
43 18 20
43 19 32
43 20 18
43 21 25
43 22 19
43 23 18
43 24 21
43 25 20
43 26 31
43 27 10
43 28 1
43 29 6
43 30 19
43 31 38
43 32 17
43 33 28
43 34 28
43 35 15
43 36 43
43 37 9
43 38 18
43 39 40
43 40 5
43 41 10
43 42 24
44 0 4
44 1 27
44 2 29
44 3 17
44 4 19
44 5 43
44 6 18
44 7 30
44 8 32
44 9 26
44 10 10
44 11 2
44 12 29
44 13 13
44 14 17
44 15 14
44 16 28
44 17 23
44 18 20
44 19 12
44 20 18
44 21 18
44 22 10
44 23 11
44 24 26
44 25 25
44 26 8
44 27 23
44 28 30
44 29 7
44 30 1
44 31 45
44 32 16
44 33 31
44 34 29
44 35 3
44 36 8
44 37 28
44 38 9
44 39 17
44 40 33
44 41 24
44 42 4
44 43 7
45 0 11
45 1 30
45 2 10
45 3 2
45 4 42
45 5 5
45 6 35
45 7 34
45 8 28
45 9 27
45 10 21
45 11 45
45 12 20
45 13 4
45 14 31
45 15 18
45 16 32
45 17 23
45 18 19
45 19 22
45 20 10
45 21 45
45 22 26
45 23 33
45 24 27
45 25 44
45 26 9
45 27 28
45 28 12
45 29 35
45 30 32
45 31 39
45 32 25
45 33 14
45 34 6
45 35 17
45 36 29
45 37 20
45 38 43
45 39 27
45 40 21
45 41 45
45 42 43
45 43 19
45 44 39
46 0 7
46 1 24
46 2 26
46 3 26
46 4 5
46 5 38
46 6 15
46 7 33
46 8 8
46 9 8
46 10 1
46 11 6
46 12 24
46 13 10
46 14 23
46 15 17
46 16 16
46 17 1
46 18 29
46 19 23
46 20 9
46 21 12
46 22 24
46 23 1
46 24 26
46 25 25
46 26 44
46 27 5
46 28 19
46 29 10
46 30 16
46 31 34
46 32 28
46 33 33
46 34 45
46 35 35
46 36 42
46 37 29
46 38 34
46 39 5
46 40 45
46 41 44
46 42 8
46 43 44
46 44 7
46 45 1
47 0 30
47 1 26
47 2 14
47 3 10
47 4 27
47 5 22
47 6 6
47 7 28
47 8 38
47 9 45
47 10 16
47 11 2
47 12 36
47 13 43
47 14 31
47 15 34
47 16 16
47 17 43
47 18 45
47 19 30
47 20 26
47 21 35
47 22 19
47 23 2
47 24 15
47 25 33
47 26 35
47 27 10
47 28 19
47 29 42
47 30 26
47 31 11
47 32 33
47 33 33
47 34 45
47 35 34
47 36 45
47 37 11
47 38 3
47 39 6
47 40 11
47 41 7
47 42 38
47 43 21
47 44 11
47 45 22
47 46 12
48 0 36
48 1 6
48 2 3
48 3 41
48 4 37
48 5 24
48 6 37
48 7 40
48 8 1
48 9 16
48 10 3
48 11 32
48 12 37
48 13 20
48 14 16
48 15 34
48 16 10
48 17 27
48 18 45
48 19 28
48 20 7
48 21 28
48 22 34
48 23 24
48 24 16
48 25 24
48 26 23
48 27 34
48 28 24
48 29 3
48 30 5
48 31 20
48 32 12
48 33 43
48 34 23
48 35 19
48 36 34
48 37 35
48 38 40
48 39 42
48 40 11
48 41 15
48 42 20
48 43 15
48 44 9
48 45 34
48 46 1
48 47 11
49 0 44
49 1 45
49 2 31
49 3 22
49 4 45
49 5 7
49 6 8
49 7 2
49 8 23
49 9 41
49 10 23
49 11 38
49 12 17
49 13 4
49 14 8
49 15 41
49 16 33
49 17 2
49 18 11
49 19 23
49 20 44
49 21 17
49 22 24
49 23 38
49 24 44
49 25 10
49 26 6
49 27 43
49 28 10
49 29 1
49 30 1
49 31 31
49 32 4
49 33 33
49 34 9
49 35 26
49 36 32
49 37 29
49 38 34
49 39 23
49 40 16
49 41 15
49 42 40
49 43 12
49 44 26
49 45 25
49 46 39
49 47 4
49 48 11
50 0 44
50 1 37
50 2 19
50 3 40
50 4 44
50 5 39
50 6 45
50 7 43
50 8 2
50 9 5
50 10 44
50 11 7
50 12 30
50 13 36
50 14 5
50 15 25
50 16 11
50 17 42
50 18 35
50 19 29
50 20 38
50 21 30
50 22 29
50 23 3
50 24 40
50 25 30
50 26 2
50 27 1
50 28 25
50 29 43
50 30 23
50 31 13
50 32 4
50 33 11
50 34 5
50 35 31
50 36 3
50 37 19
50 38 12
50 39 13
50 40 6
50 41 3
50 42 17
50 43 19
50 44 2
50 45 38
50 46 19
50 47 35
50 48 39
50 49 8
51 0 20
51 1 35
51 2 31
51 3 1
51 4 15
51 5 10
51 6 12
51 7 40
51 8 20
51 9 34
51 10 17
51 11 43
51 12 13
51 13 30
51 14 39
51 15 36
51 16 29
51 17 11
51 18 25
51 19 4
51 20 20
51 21 19
51 22 27
51 23 11
51 24 3
51 25 33
51 26 2
51 27 34
51 28 37
51 29 21
51 30 18
51 31 1
51 32 32
51 33 38
51 34 29
51 35 31
51 36 3
51 37 27
51 38 6
51 39 32
51 40 20
51 41 44
51 42 2
51 43 35
51 44 22
51 45 18
51 46 20
51 47 4
51 48 26
51 49 44
51 50 4
52 0 44
52 1 26
52 2 45
52 3 34
52 4 16
52 5 17
52 6 34
52 7 16
52 8 5
52 9 4
52 10 20
52 11 15
52 12 12
52 13 41
52 14 1
52 15 5
52 16 12
52 17 18
52 18 6
52 19 24
52 20 7
52 21 44
52 22 42
52 23 27
52 24 40
52 25 25
52 26 30
52 27 39
52 28 39
52 29 18
52 30 40
52 31 21
52 32 15
52 33 24
52 34 33
52 35 21
52 36 23
52 37 15
52 38 10
52 39 43
52 40 16
52 41 6
52 42 31
52 43 19
52 44 16
52 45 2
52 46 44
52 47 41
52 48 41
52 49 12
52 50 39
52 51 13
53 0 7
53 1 26
53 2 33
53 3 23
53 4 43
53 5 31
53 6 29
53 7 27
53 8 42
53 9 42
53 10 14
53 11 4
53 12 22
53 13 9
53 14 19
53 15 28
53 16 7
53 17 8
53 18 31
53 19 22
53 20 32
53 21 15
53 22 6
53 23 42
53 24 8
53 25 4
53 26 35
53 27 26
53 28 15
53 29 20
53 30 36
53 31 19
53 32 15
53 33 25
53 34 18
53 35 8
53 36 42
53 37 12
53 38 25
53 39 42
53 40 3
53 41 31
53 42 42
53 43 12
53 44 33
53 45 3
53 46 34
53 47 23
53 48 38
53 49 33
53 50 23
53 51 30
53 52 5
54 0 41
54 1 29
54 2 11
54 3 6
54 4 21
54 5 32
54 6 38
54 7 28
54 8 40
54 9 35
54 10 25
54 11 45
54 12 25
54 13 27
54 14 11
54 15 43
54 16 12
54 17 15
54 18 14
54 19 43
54 20 16
54 21 29
54 22 33
54 23 10
54 24 22
54 25 12
54 26 8
54 27 15
54 28 36
54 29 35
54 30 31
54 31 2
54 32 20
54 33 38
54 34 1
54 35 40
54 36 20
54 37 10
54 38 2
54 39 9
54 40 14
54 41 20
54 42 15
54 43 45
54 44 39
54 45 34
54 46 2
54 47 8
54 48 29
54 49 37
54 50 36
54 51 1
54 52 6
54 53 22
55 0 45
55 1 39
55 2 11
55 3 9
55 4 43
55 5 14
55 6 24
55 7 5
55 8 28
55 9 23
55 10 7
55 11 5
55 12 37
55 13 18
55 14 25
55 15 40
55 16 21
55 17 34
55 18 16
55 19 9
55 20 37
55 21 30
55 22 43
55 23 35
55 24 1
55 25 30
55 26 34
55 27 19
55 28 24
55 29 20
55 30 9
55 31 21
55 32 35
55 33 14
55 34 36
55 35 20
55 36 33
55 37 22
55 38 44
55 39 32
55 40 38
55 41 44
55 42 15
55 43 20
55 44 18
55 45 33
55 46 42
55 47 9
55 48 37
55 49 1
55 50 7
55 51 42
55 52 39
55 53 31
55 54 31
56 0 1
56 1 5
56 2 18
56 3 34
56 4 7
56 5 44
56 6 42
56 7 3
56 8 27
56 9 16
56 10 31
56 11 36
56 12 22
56 13 20
56 14 12
56 15 13
56 16 6
56 17 19
56 18 7
56 19 39
56 20 16
56 21 6
56 22 2
56 23 36
56 24 28
56 25 27
56 26 40
56 27 33
56 28 4
56 29 27
56 30 3
56 31 42
56 32 13
56 33 5
56 34 4
56 35 45
56 36 23
56 37 24
56 38 35
56 39 44
56 40 32
56 41 1
56 42 34
56 43 20
56 44 10
56 45 21
56 46 41
56 47 13
56 48 13
56 49 26
56 50 44
56 51 21
56 52 35
56 53 19
56 54 18
56 55 39
57 0 15
57 1 23
57 2 4
57 3 14
57 4 26
57 5 32
57 6 42
57 7 37
57 8 25
57 9 7
57 10 8
57 11 22
57 12 17
57 13 32
57 14 27
57 15 18
57 16 17
57 17 24
57 18 25
57 19 41
57 20 43
57 21 45
57 22 10
57 23 36
57 24 14
57 25 43
57 26 25
57 27 11
57 28 2
57 29 6
57 30 35
57 31 28
57 32 11
57 33 39
57 34 11
57 35 39
57 36 23
57 37 45
57 38 25
57 39 9
57 40 3
57 41 5
57 42 29
57 43 10
57 44 42
57 45 35
57 46 18
57 47 15
57 48 38
57 49 17
57 50 22
57 51 34
57 52 8
57 53 21
57 54 27
57 55 4
57 56 20
58 0 9
58 1 45
58 2 42
58 3 29
58 4 42
58 5 40
58 6 43
58 7 42
58 8 2
58 9 36
58 10 17
58 11 14
58 12 29
58 13 8
58 14 4
58 15 4
58 16 43
58 17 42
58 18 29
58 19 24
58 20 45
58 21 17
58 22 35
58 23 39
58 24 15
58 25 8
58 26 11
58 27 29
58 28 43
58 29 40
58 30 10
58 31 44
58 32 10
58 33 15
58 34 23
58 35 12
58 36 35
58 37 6
58 38 16
58 39 17
58 40 35
58 41 33
58 42 15
58 43 22
58 44 35
58 45 43
58 46 44
58 47 41
58 48 8
58 49 40
58 50 45
58 51 29
58 52 3
58 53 39
58 54 5
58 55 33
58 56 35
58 57 15
59 0 43
59 1 6
59 2 29
59 3 13
59 4 23
59 5 8
59 6 32
59 7 21
59 8 19
59 9 30
59 10 12
59 11 24
59 12 18
59 13 4
59 14 30
59 15 33
59 16 5
59 17 27
59 18 30
59 19 38
59 20 15
59 21 31
59 22 9
59 23 33
59 24 37
59 25 36
59 26 26
59 27 11
59 28 23
59 29 4
59 30 5
59 31 33
59 32 42
59 33 21
59 34 5
59 35 10
59 36 42
59 37 5
59 38 20
59 39 3
59 40 3
59 41 25
59 42 3
59 43 24
59 44 9
59 45 37
59 46 26
59 47 38
59 48 18
59 49 6
59 50 15
59 51 24
59 52 44
59 53 20
59 54 37
59 55 34
59 56 11
59 57 16
59 58 16
60 0 36
60 1 14
60 2 39
60 3 10
60 4 1
60 5 14
60 6 13
60 7 38
60 8 16
60 9 22
60 10 29
60 11 35
60 12 18
60 13 9
60 14 22
60 15 13
60 16 1
60 17 33
60 18 29
60 19 43
60 20 27
60 21 25
60 22 21
60 23 37
60 24 13
60 25 22
60 26 37
60 27 25
60 28 22
60 29 21
60 30 25
60 31 43
60 32 32
60 33 23
60 34 6
60 35 36
60 36 33
60 37 26
60 38 4
60 39 27
60 40 17
60 41 30
60 42 13
60 43 1
60 44 17
60 45 15
60 46 39
60 47 43
60 48 7
60 49 13
60 50 30
60 51 17
60 52 34
60 53 3
60 54 29
60 55 30
60 56 45
60 57 25
60 58 8
60 59 3
61 0 18
61 1 8
61 2 16
61 3 42
61 4 39
61 5 3
61 6 4
61 7 36
61 8 6
61 9 1
61 10 3
61 11 36
61 12 44
61 13 33
61 14 5
61 15 37
61 16 14
61 17 6
61 18 30
61 19 16
61 20 15
61 21 41
61 22 6
61 23 36
61 24 13
61 25 42
61 26 21
61 27 15
61 28 40
61 29 21
61 30 14
61 31 26
61 32 40
61 33 41
61 34 17
61 35 18
61 36 40
61 37 17
61 38 43
61 39 40
61 40 5
61 41 11
61 42 1
61 43 42
61 44 32
61 45 16
61 46 31
61 47 26
61 48 41
61 49 39
61 50 25
61 51 20
61 52 2
61 53 33
61 54 8
61 55 4
61 56 13
61 57 4
61 58 10
61 59 21
61 60 26
62 0 22
62 1 22
62 2 14
62 3 10
62 4 20
62 5 32
62 6 15
62 7 40
62 8 31
62 9 38
62 10 31
62 11 7
62 12 15
62 13 12
62 14 2
62 15 43
62 16 34
62 17 42
62 18 40
62 19 9
62 20 32
62 21 29
62 22 14
62 23 37
62 24 16
62 25 39
62 26 16
62 27 36
62 28 33
62 29 33
62 30 23
62 31 41
62 32 12
62 33 14
62 34 36
62 35 17
62 36 13
62 37 43
62 38 43
62 39 22
62 40 19
62 41 29
62 42 19
62 43 9
62 44 22
62 45 25
62 46 2
62 47 35
62 48 13
62 49 5
62 50 40
62 51 16
62 52 14
62 53 21
62 54 23
62 55 4
62 56 19
62 57 42
62 58 20
62 59 39
62 60 40
62 61 7
63 0 44
63 1 40
63 2 8
63 3 28
63 4 20
63 5 43
63 6 44
63 7 3
63 8 13
63 9 32
63 10 29
63 11 45
63 12 4
63 13 24
63 14 15
63 15 42
63 16 4
63 17 38
63 18 35
63 19 28
63 20 33
63 21 29
63 22 1
63 23 37
63 24 23
63 25 7
63 26 38
63 27 39
63 28 9
63 29 13
63 30 29
63 31 43
63 32 39
63 33 27
63 34 39
63 35 18
63 36 33
63 37 6
63 38 28
63 39 10
63 40 17
63 41 37
63 42 24
63 43 7
63 44 2
63 45 33
63 46 16
63 47 34
63 48 7
63 49 15
63 50 45
63 51 44
63 52 43
63 53 16
63 54 20
63 55 35
63 56 6
63 57 45
63 58 13
63 59 32
63 60 45
63 61 27
63 62 29
64 0 34
64 1 5
64 2 3
64 3 24
64 4 30
64 5 35
64 6 25
64 7 5
64 8 37
64 9 37
64 10 14
64 11 27
64 12 41
64 13 13
64 14 24
64 15 10
64 16 21
64 17 12
64 18 40
64 19 42
64 20 33
64 21 38
64 22 32
64 23 33
64 24 23
64 25 40
64 26 15
64 27 26
64 28 43
64 29 5
64 30 1
64 31 25
64 32 14
64 33 44
64 34 9
64 35 16
64 36 20
64 37 33
64 38 8
64 39 34
64 40 12
64 41 8
64 42 33
64 43 14
64 44 22
64 45 43
64 46 36
64 47 15
64 48 25
64 49 45
64 50 18
64 51 15
64 52 15
64 53 42
64 54 30
64 55 4
64 56 9
64 57 16
64 58 15
64 59 5
64 60 23
64 61 6
64 62 12
64 63 13
65 0 17
65 1 19
65 2 29
65 3 43
65 4 27
65 5 4
65 6 12
65 7 22
65 8 45
65 9 12
65 10 31
65 11 14
65 12 21
65 13 29
65 14 16
65 15 4
65 16 22
65 17 37
65 18 2
65 19 2
65 20 1
65 21 16
65 22 44
65 23 5
65 24 44
65 25 34
65 26 31
65 27 8
65 28 27
65 29 13
65 30 22
65 31 27
65 32 28
65 33 26
65 34 37
65 35 35
65 36 35
65 37 8
65 38 11
65 39 18
65 40 15
65 41 30
65 42 30
65 43 45
65 44 29
65 45 40
65 46 42
65 47 18
65 48 27
65 49 26
65 50 5
65 51 19
65 52 36
65 53 11
65 54 44
65 55 9
65 56 36
65 57 7
65 58 21
65 59 25
65 60 28
65 61 45
65 62 11
65 63 19
65 64 22
